n_boats=80;
n_periods=20;
capacity=[60,4,54,1,10,29,39,50,60,7,21,14,35,33,41,12,38,11,15,31,22,17,37,14,55,40,45,58,50,15,29,12,8,7,60,58,40,33,35,10,2,17,57,10,47,60,21,40,37,58,31,30,59,57,34,10,1,47,37,4,20,55,35,13,33,43,58,47,9,10,33,47,41,46,42,31,55,13,8,22];
crew=[21,1,22,1,7,20,14,50,30,6,7,11,29,30,35,1,6,1,1,27,21,8,8,12,35,28,34,10,26,3,7,10,2,7,20,22,35,31,4,10,1,14,55,8,47,24,17,33,29,41,20,21,50,38,31,2,1,43,6,3,2,23,16,2,30,8,43,30,6,3,11,35,37,35,39,12,51,5,8,7];
